p cnf 200 1110
-101 86 0
-101 48 0
-101 -47 0
-101 -57 0
-101 -89 0
-101 -4 0
-101 24 0
-101 53 0
-101 -70 0
-101 -56 0
101 -86 -48 47 57 89 4 -24 -53 70 56 0
-102 -43 0
-102 4 0
-102 71 0
-102 -98 0
-102 -89 0
-102 92 0
-102 -5 0
-102 85 0
-102 -72 0
-102 -97 0
102 43 -4 -71 98 89 -92 5 -85 72 97 0
-103 60 0
-103 83 0
-103 47 0
-103 -11 0
-103 21 0
-103 -75 0
-103 -94 0
-103 25 0
-103 -2 0
-103 -18 0
103 -60 -83 -47 11 -21 75 94 -25 2 18 0
-104 -19 0
-104 3 0
-104 1 0
-104 -89 0
-104 -50 0
-104 84 0
-104 -29 0
-104 -41 0
-104 69 0
-104 -20 0
104 19 -3 -1 89 50 -84 29 41 -69 20 0
-105 -6 0
-105 81 0
-105 28 0
-105 -15 0
-105 93 0
-105 -87 0
-105 -26 0
-105 99 0
-105 58 0
-105 -35 0
105 6 -81 -28 15 -93 87 26 -99 -58 35 0
-106 45 0
-106 46 0
-106 -59 0
-106 97 0
-106 89 0
-106 17 0
-106 -7 0
-106 11 0
-106 -77 0
-106 -49 0
106 -45 -46 59 -97 -89 -17 7 -11 77 49 0
-107 -88 0
-107 1 0
-107 60 0
-107 2 0
-107 91 0
-107 -38 0
-107 -85 0
-107 10 0
-107 -76 0
-107 53 0
107 88 -1 -60 -2 -91 38 85 -10 76 -53 0
-108 51 0
-108 49 0
-108 94 0
-108 9 0
-108 -10 0
-108 -4 0
-108 67 0
-108 36 0
-108 15 0
-108 5 0
108 -51 -49 -94 -9 10 4 -67 -36 -15 -5 0
-109 -97 0
-109 -36 0
-109 3 0
-109 5 0
-109 74 0
-109 28 0
-109 -4 0
-109 -53 0
-109 -65 0
-109 59 0
109 97 36 -3 -5 -74 -28 4 53 65 -59 0
-110 9 0
-110 8 0
-110 -13 0
-110 -40 0
-110 18 0
-110 -26 0
-110 17 0
-110 76 0
-110 58 0
-110 94 0
110 -9 -8 13 40 -18 26 -17 -76 -58 -94 0
101 102 103 104 105 106 107 108 109 110 0
-111 14 0
-111 22 0
-111 -84 0
-111 97 0
-111 83 0
-111 -77 0
-111 -74 0
-111 88 0
-111 -30 0
-111 -99 0
111 -14 -22 84 -97 -83 77 74 -88 30 99 0
-112 -86 0
-112 -50 0
-112 56 0
-112 -73 0
-112 -75 0
-112 -77 0
-112 28 0
-112 89 0
-112 -16 0
-112 81 0
112 86 50 -56 73 75 77 -28 -89 16 -81 0
-113 52 0
-113 29 0
-113 -76 0
-113 -55 0
-113 -18 0
-113 44 0
-113 -58 0
-113 -93 0
-113 35 0
-113 40 0
113 -52 -29 76 55 18 -44 58 93 -35 -40 0
-114 25 0
-114 83 0
-114 67 0
-114 -100 0
-114 -33 0
-114 -8 0
-114 38 0
-114 72 0
-114 99 0
-114 -80 0
114 -25 -83 -67 100 33 8 -38 -72 -99 80 0
-115 -7 0
-115 67 0
-115 36 0
-115 -3 0
-115 -81 0
-115 15 0
-115 31 0
-115 -92 0
-115 5 0
-115 -13 0
115 7 -67 -36 3 81 -15 -31 92 -5 13 0
-116 38 0
-116 23 0
-116 68 0
-116 -96 0
-116 48 0
-116 -88 0
-116 67 0
-116 98 0
-116 -33 0
-116 41 0
116 -38 -23 -68 96 -48 88 -67 -98 33 -41 0
-117 -9 0
-117 -74 0
-117 -39 0
-117 23 0
-117 -67 0
-117 59 0
-117 71 0
-117 -53 0
-117 8 0
-117 6 0
117 9 74 39 -23 67 -59 -71 53 -8 -6 0
-118 66 0
-118 94 0
-118 44 0
-118 3 0
-118 60 0
-118 30 0
-118 13 0
-118 49 0
-118 -47 0
-118 -14 0
118 -66 -94 -44 -3 -60 -30 -13 -49 47 14 0
-119 96 0
-119 -93 0
-119 -16 0
-119 -11 0
-119 52 0
-119 91 0
-119 -33 0
-119 -47 0
-119 3 0
-119 -44 0
119 -96 93 16 11 -52 -91 33 47 -3 44 0
-120 -53 0
-120 -79 0
-120 75 0
-120 68 0
-120 -74 0
-120 -70 0
-120 -2 0
-120 85 0
-120 34 0
-120 8 0
120 53 79 -75 -68 74 70 2 -85 -34 -8 0
111 112 113 114 115 116 117 118 119 120 0
-121 -7 0
-121 -72 0
-121 70 0
-121 9 0
-121 -5 0
-121 -22 0
-121 -65 0
-121 37 0
-121 -43 0
-121 50 0
121 7 72 -70 -9 5 22 65 -37 43 -50 0
-122 51 0
-122 59 0
-122 13 0
-122 45 0
-122 44 0
-122 -53 0
-122 68 0
-122 52 0
-122 -14 0
-122 15 0
122 -51 -59 -13 -45 -44 53 -68 -52 14 -15 0
-123 19 0
-123 -95 0
-123 -57 0
-123 -84 0
-123 -74 0
-123 22 0
-123 -87 0
-123 37 0
-123 -62 0
-123 26 0
123 -19 95 57 84 74 -22 87 -37 62 -26 0
-124 -85 0
-124 -51 0
-124 -46 0
-124 40 0
-124 88 0
-124 -5 0
-124 91 0
-124 -8 0
-124 -16 0
-124 39 0
124 85 51 46 -40 -88 5 -91 8 16 -39 0
-125 61 0
-125 87 0
-125 -16 0
-125 20 0
-125 71 0
-125 -21 0
-125 -95 0
-125 28 0
-125 -90 0
-125 51 0
125 -61 -87 16 -20 -71 21 95 -28 90 -51 0
-126 84 0
-126 46 0
-126 26 0
-126 -21 0
-126 -43 0
-126 -27 0
-126 83 0
-126 16 0
-126 -13 0
-126 100 0
126 -84 -46 -26 21 43 27 -83 -16 13 -100 0
-127 -85 0
-127 69 0
-127 -87 0
-127 -19 0
-127 88 0
-127 21 0
-127 -58 0
-127 91 0
-127 -52 0
-127 86 0
127 85 -69 87 19 -88 -21 58 -91 52 -86 0
-128 -100 0
-128 -67 0
-128 -73 0
-128 11 0
-128 26 0
-128 2 0
-128 -64 0
-128 -20 0
-128 28 0
-128 45 0
128 100 67 73 -11 -26 -2 64 20 -28 -45 0
-129 -4 0
-129 -93 0
-129 -79 0
-129 -19 0
-129 77 0
-129 -7 0
-129 -37 0
-129 -75 0
-129 64 0
-129 91 0
129 4 93 79 19 -77 7 37 75 -64 -91 0
-130 75 0
-130 -14 0
-130 -32 0
-130 1 0
-130 10 0
-130 86 0
-130 61 0
-130 -81 0
-130 30 0
-130 7 0
130 -75 14 32 -1 -10 -86 -61 81 -30 -7 0
121 122 123 124 125 126 127 128 129 130 0
-131 95 0
-131 -82 0
-131 92 0
-131 -94 0
-131 -87 0
-131 -62 0
-131 -23 0
-131 5 0
-131 8 0
-131 42 0
131 -95 82 -92 94 87 62 23 -5 -8 -42 0
-132 -11 0
-132 18 0
-132 -84 0
-132 45 0
-132 95 0
-132 53 0
-132 70 0
-132 56 0
-132 -65 0
-132 -22 0
132 11 -18 84 -45 -95 -53 -70 -56 65 22 0
-133 -75 0
-133 -87 0
-133 37 0
-133 -55 0
-133 -49 0
-133 35 0
-133 57 0
-133 22 0
-133 4 0
-133 46 0
133 75 87 -37 55 49 -35 -57 -22 -4 -46 0
-134 10 0
-134 -28 0
-134 -87 0
-134 -34 0
-134 49 0
-134 -98 0
-134 67 0
-134 -29 0
-134 18 0
-134 11 0
134 -10 28 87 34 -49 98 -67 29 -18 -11 0
-135 -96 0
-135 95 0
-135 44 0
-135 23 0
-135 -93 0
-135 -33 0
-135 99 0
-135 14 0
-135 84 0
-135 -32 0
135 96 -95 -44 -23 93 33 -99 -14 -84 32 0
-136 8 0
-136 71 0
-136 95 0
-136 -36 0
-136 -44 0
-136 -80 0
-136 -67 0
-136 -89 0
-136 61 0
-136 -88 0
136 -8 -71 -95 36 44 80 67 89 -61 88 0
-137 -76 0
-137 8 0
-137 26 0
-137 68 0
-137 -99 0
-137 -18 0
-137 71 0
-137 92 0
-137 -10 0
-137 -87 0
137 76 -8 -26 -68 99 18 -71 -92 10 87 0
-138 54 0
-138 -67 0
-138 -27 0
-138 -32 0
-138 43 0
-138 -3 0
-138 -69 0
-138 -18 0
-138 12 0
-138 -61 0
138 -54 67 27 32 -43 3 69 18 -12 61 0
-139 -48 0
-139 -84 0
-139 -89 0
-139 10 0
-139 81 0
-139 44 0
-139 -9 0
-139 -8 0
-139 56 0
-139 -18 0
139 48 84 89 -10 -81 -44 9 8 -56 18 0
-140 -6 0
-140 44 0
-140 67 0
-140 -63 0
-140 48 0
-140 -65 0
-140 -45 0
-140 -78 0
-140 -58 0
-140 40 0
140 6 -44 -67 63 -48 65 45 78 58 -40 0
131 132 133 134 135 136 137 138 139 140 0
-141 -17 0
-141 -75 0
-141 39 0
-141 -29 0
-141 27 0
-141 -21 0
-141 -2 0
-141 -1 0
-141 -3 0
-141 26 0
141 17 75 -39 29 -27 21 2 1 3 -26 0
-142 80 0
-142 -47 0
-142 5 0
-142 -79 0
-142 26 0
-142 52 0
-142 -28 0
-142 8 0
-142 -53 0
-142 -46 0
142 -80 47 -5 79 -26 -52 28 -8 53 46 0
-143 -33 0
-143 15 0
-143 -38 0
-143 -47 0
-143 -44 0
-143 34 0
-143 70 0
-143 91 0
-143 -17 0
-143 -76 0
143 33 -15 38 47 44 -34 -70 -91 17 76 0
-144 -90 0
-144 37 0
-144 -88 0
-144 -24 0
-144 20 0
-144 -2 0
-144 -65 0
-144 43 0
-144 -36 0
-144 -64 0
144 90 -37 88 24 -20 2 65 -43 36 64 0
-145 100 0
-145 -70 0
-145 79 0
-145 28 0
-145 -69 0
-145 -85 0
-145 -27 0
-145 52 0
-145 45 0
-145 -13 0
145 -100 70 -79 -28 69 85 27 -52 -45 13 0
-146 -40 0
-146 41 0
-146 -14 0
-146 15 0
-146 -92 0
-146 -57 0
-146 -30 0
-146 -78 0
-146 -16 0
-146 61 0
146 40 -41 14 -15 92 57 30 78 16 -61 0
-147 -37 0
-147 -56 0
-147 100 0
-147 80 0
-147 -30 0
-147 68 0
-147 66 0
-147 -82 0
-147 1 0
-147 -93 0
147 37 56 -100 -80 30 -68 -66 82 -1 93 0
-148 -95 0
-148 74 0
-148 -72 0
-148 85 0
-148 48 0
-148 -23 0
-148 -60 0
-148 -47 0
-148 89 0
-148 -10 0
148 95 -74 72 -85 -48 23 60 47 -89 10 0
-149 44 0
-149 6 0
-149 25 0
-149 74 0
-149 -34 0
-149 -19 0
-149 4 0
-149 -53 0
-149 -88 0
-149 41 0
149 -44 -6 -25 -74 34 19 -4 53 88 -41 0
-150 59 0
-150 -46 0
-150 40 0
-150 92 0
-150 -79 0
-150 41 0
-150 19 0
-150 -25 0
-150 61 0
-150 -48 0
150 -59 46 -40 -92 79 -41 -19 25 -61 48 0
141 142 143 144 145 146 147 148 149 150 0
-151 95 0
-151 78 0
-151 -96 0
-151 21 0
-151 -27 0
-151 32 0
-151 30 0
-151 53 0
-151 42 0
-151 -82 0
151 -95 -78 96 -21 27 -32 -30 -53 -42 82 0
-152 15 0
-152 -9 0
-152 8 0
-152 -17 0
-152 59 0
-152 27 0
-152 51 0
-152 -77 0
-152 -96 0
-152 44 0
152 -15 9 -8 17 -59 -27 -51 77 96 -44 0
-153 48 0
-153 -83 0
-153 23 0
-153 36 0
-153 -14 0
-153 -70 0
-153 2 0
-153 -17 0
-153 -31 0
-153 -66 0
153 -48 83 -23 -36 14 70 -2 17 31 66 0
-154 56 0
-154 72 0
-154 -1 0
-154 -84 0
-154 83 0
-154 16 0
-154 70 0
-154 -10 0
-154 81 0
-154 36 0
154 -56 -72 1 84 -83 -16 -70 10 -81 -36 0
-155 -59 0
-155 -41 0
-155 -18 0
-155 -33 0
-155 -32 0
-155 65 0
-155 -79 0
-155 40 0
-155 -46 0
-155 63 0
155 59 41 18 33 32 -65 79 -40 46 -63 0
-156 -34 0
-156 100 0
-156 -23 0
-156 83 0
-156 -75 0
-156 -74 0
-156 -37 0
-156 -5 0
-156 -92 0
-156 35 0
156 34 -100 23 -83 75 74 37 5 92 -35 0
-157 43 0
-157 -88 0
-157 49 0
-157 -41 0
-157 -85 0
-157 94 0
-157 20 0
-157 -13 0
-157 84 0
-157 1 0
157 -43 88 -49 41 85 -94 -20 13 -84 -1 0
-158 -85 0
-158 -25 0
-158 48 0
-158 64 0
-158 -87 0
-158 75 0
-158 -43 0
-158 70 0
-158 -53 0
-158 -12 0
158 85 25 -48 -64 87 -75 43 -70 53 12 0
-159 -4 0
-159 -17 0
-159 -9 0
-159 -70 0
-159 -37 0
-159 -79 0
-159 -24 0
-159 50 0
-159 3 0
-159 -73 0
159 4 17 9 70 37 79 24 -50 -3 73 0
-160 -91 0
-160 38 0
-160 65 0
-160 14 0
-160 -43 0
-160 51 0
-160 -57 0
-160 -92 0
-160 97 0
-160 -47 0
160 91 -38 -65 -14 43 -51 57 92 -97 47 0
151 152 153 154 155 156 157 158 159 160 0
-161 -36 0
-161 -66 0
-161 -97 0
-161 4 0
-161 -40 0
-161 81 0
-161 -69 0
-161 85 0
-161 19 0
-161 56 0
161 36 66 97 -4 40 -81 69 -85 -19 -56 0
-162 77 0
-162 -7 0
-162 30 0
-162 -62 0
-162 -43 0
-162 -67 0
-162 45 0
-162 -80 0
-162 -98 0
-162 -39 0
162 -77 7 -30 62 43 67 -45 80 98 39 0
-163 -76 0
-163 67 0
-163 -33 0
-163 -71 0
-163 23 0
-163 -7 0
-163 -19 0
-163 91 0
-163 94 0
-163 28 0
163 76 -67 33 71 -23 7 19 -91 -94 -28 0
-164 56 0
-164 70 0
-164 -41 0
-164 -100 0
-164 -99 0
-164 8 0
-164 -89 0
-164 2 0
-164 -49 0
-164 48 0
164 -56 -70 41 100 99 -8 89 -2 49 -48 0
-165 -4 0
-165 89 0
-165 -48 0
-165 86 0
-165 -45 0
-165 94 0
-165 97 0
-165 -54 0
-165 33 0
-165 61 0
165 4 -89 48 -86 45 -94 -97 54 -33 -61 0
-166 16 0
-166 -2 0
-166 46 0
-166 92 0
-166 79 0
-166 -96 0
-166 -20 0
-166 -45 0
-166 -27 0
-166 89 0
166 -16 2 -46 -92 -79 96 20 45 27 -89 0
-167 -98 0
-167 76 0
-167 -33 0
-167 -38 0
-167 -93 0
-167 -19 0
-167 -18 0
-167 74 0
-167 -37 0
-167 44 0
167 98 -76 33 38 93 19 18 -74 37 -44 0
-168 47 0
-168 -66 0
-168 -29 0
-168 -21 0
-168 -40 0
-168 15 0
-168 -54 0
-168 22 0
-168 80 0
-168 -75 0
168 -47 66 29 21 40 -15 54 -22 -80 75 0
-169 96 0
-169 21 0
-169 -63 0
-169 -24 0
-169 28 0
-169 97 0
-169 91 0
-169 2 0
-169 32 0
-169 12 0
169 -96 -21 63 24 -28 -97 -91 -2 -32 -12 0
-170 64 0
-170 -53 0
-170 -57 0
-170 -25 0
-170 87 0
-170 36 0
-170 -12 0
-170 -1 0
-170 -5 0
-170 47 0
170 -64 53 57 25 -87 -36 12 1 5 -47 0
161 162 163 164 165 166 167 168 169 170 0
-171 30 0
-171 -23 0
-171 -84 0
-171 -28 0
-171 59 0
-171 27 0
-171 -54 0
-171 -9 0
-171 -95 0
-171 56 0
171 -30 23 84 28 -59 -27 54 9 95 -56 0
-172 -79 0
-172 -53 0
-172 -81 0
-172 44 0
-172 36 0
-172 24 0
-172 5 0
-172 95 0
-172 -68 0
-172 27 0
172 79 53 81 -44 -36 -24 -5 -95 68 -27 0
-173 20 0
-173 -46 0
-173 22 0
-173 -43 0
-173 58 0
-173 77 0
-173 36 0
-173 41 0
-173 38 0
-173 89 0
173 -20 46 -22 43 -58 -77 -36 -41 -38 -89 0
-174 27 0
-174 -4 0
-174 25 0
-174 -58 0
-174 -56 0
-174 -36 0
-174 46 0
-174 77 0
-174 -64 0
-174 12 0
174 -27 4 -25 58 56 36 -46 -77 64 -12 0
-175 -27 0
-175 91 0
-175 57 0
-175 73 0
-175 79 0
-175 47 0
-175 62 0
-175 96 0
-175 -41 0
-175 -71 0
175 27 -91 -57 -73 -79 -47 -62 -96 41 71 0
-176 26 0
-176 52 0
-176 -79 0
-176 -16 0
-176 -21 0
-176 -93 0
-176 4 0
-176 56 0
-176 33 0
-176 -53 0
176 -26 -52 79 16 21 93 -4 -56 -33 53 0
-177 71 0
-177 30 0
-177 49 0
-177 -7 0
-177 46 0
-177 14 0
-177 -17 0
-177 22 0
-177 89 0
-177 -65 0
177 -71 -30 -49 7 -46 -14 17 -22 -89 65 0
-178 -8 0
-178 -49 0
-178 -7 0
-178 86 0
-178 -60 0
-178 -38 0
-178 -76 0
-178 78 0
-178 -21 0
-178 -90 0
178 8 49 7 -86 60 38 76 -78 21 90 0
-179 -32 0
-179 63 0
-179 -41 0
-179 23 0
-179 -100 0
-179 1 0
-179 89 0
-179 49 0
-179 80 0
-179 -19 0
179 32 -63 41 -23 100 -1 -89 -49 -80 19 0
-180 66 0
-180 96 0
-180 -72 0
-180 -40 0
-180 1 0
-180 56 0
-180 11 0
-180 2 0
-180 35 0
-180 18 0
180 -66 -96 72 40 -1 -56 -11 -2 -35 -18 0
171 172 173 174 175 176 177 178 179 180 0
-181 4 0
-181 74 0
-181 -21 0
-181 -58 0
-181 -67 0
-181 -73 0
-181 -91 0
-181 -88 0
-181 -12 0
-181 -87 0
181 -4 -74 21 58 67 73 91 88 12 87 0
-182 -13 0
-182 40 0
-182 69 0
-182 62 0
-182 11 0
-182 30 0
-182 52 0
-182 32 0
-182 53 0
-182 67 0
182 13 -40 -69 -62 -11 -30 -52 -32 -53 -67 0
-183 -7 0
-183 36 0
-183 65 0
-183 -81 0
-183 -67 0
-183 -33 0
-183 -61 0
-183 -32 0
-183 16 0
-183 69 0
183 7 -36 -65 81 67 33 61 32 -16 -69 0
-184 -67 0
-184 -8 0
-184 99 0
-184 90 0
-184 43 0
-184 64 0
-184 -14 0
-184 20 0
-184 -63 0
-184 48 0
184 67 8 -99 -90 -43 -64 14 -20 63 -48 0
-185 7 0
-185 -97 0
-185 91 0
-185 -31 0
-185 5 0
-185 47 0
-185 -81 0
-185 13 0
-185 -89 0
-185 77 0
185 -7 97 -91 31 -5 -47 81 -13 89 -77 0
-186 -73 0
-186 18 0
-186 -38 0
-186 5 0
-186 41 0
-186 52 0
-186 28 0
-186 -3 0
-186 -10 0
-186 61 0
186 73 -18 38 -5 -41 -52 -28 3 10 -61 0
-187 -8 0
-187 -15 0
-187 97 0
-187 -18 0
-187 34 0
-187 19 0
-187 -90 0
-187 72 0
-187 100 0
-187 35 0
187 8 15 -97 18 -34 -19 90 -72 -100 -35 0
-188 60 0
-188 66 0
-188 42 0
-188 -2 0
-188 27 0
-188 33 0
-188 36 0
-188 -55 0
-188 79 0
-188 -82 0
188 -60 -66 -42 2 -27 -33 -36 55 -79 82 0
-189 -53 0
-189 81 0
-189 35 0
-189 43 0
-189 63 0
-189 90 0
-189 -19 0
-189 98 0
-189 80 0
-189 -20 0
189 53 -81 -35 -43 -63 -90 19 -98 -80 20 0
-190 -24 0
-190 -55 0
-190 -50 0
-190 -2 0
-190 -52 0
-190 38 0
-190 -3 0
-190 91 0
-190 23 0
-190 -10 0
190 24 55 50 2 52 -38 3 -91 -23 10 0
181 182 183 184 185 186 187 188 189 190 0
-191 8 0
-191 -76 0
-191 -28 0
-191 -84 0
-191 -67 0
-191 95 0
-191 37 0
-191 -56 0
-191 -18 0
-191 -3 0
191 -8 76 28 84 67 -95 -37 56 18 3 0
-192 -4 0
-192 61 0
-192 48 0
-192 33 0
-192 78 0
-192 -66 0
-192 -53 0
-192 9 0
-192 -76 0
-192 67 0
192 4 -61 -48 -33 -78 66 53 -9 76 -67 0
-193 -84 0
-193 -85 0
-193 36 0
-193 44 0
-193 -94 0
-193 -92 0
-193 -34 0
-193 68 0
-193 -52 0
-193 -47 0
193 84 85 -36 -44 94 92 34 -68 52 47 0
-194 46 0
-194 -26 0
-194 -88 0
-194 34 0
-194 -24 0
-194 11 0
-194 56 0
-194 51 0
-194 -22 0
-194 -38 0
194 -46 26 88 -34 24 -11 -56 -51 22 38 0
-195 -75 0
-195 78 0
-195 88 0
-195 -62 0
-195 -65 0
-195 87 0
-195 -21 0
-195 -6 0
-195 -11 0
-195 67 0
195 75 -78 -88 62 65 -87 21 6 11 -67 0
-196 -63 0
-196 -84 0
-196 -12 0
-196 79 0
-196 58 0
-196 -97 0
-196 5 0
-196 -26 0
-196 -20 0
-196 -66 0
196 63 84 12 -79 -58 97 -5 26 20 66 0
-197 44 0
-197 39 0
-197 30 0
-197 -42 0
-197 68 0
-197 64 0
-197 73 0
-197 -25 0
-197 35 0
-197 16 0
197 -44 -39 -30 42 -68 -64 -73 25 -35 -16 0
-198 -61 0
-198 74 0
-198 -31 0
-198 13 0
-198 -1 0
-198 69 0
-198 49 0
-198 18 0
-198 -93 0
-198 -97 0
198 61 -74 31 -13 1 -69 -49 -18 93 97 0
-199 -56 0
-199 -1 0
-199 -98 0
-199 -26 0
-199 -55 0
-199 -37 0
-199 -89 0
-199 -48 0
-199 -18 0
-199 -29 0
199 56 1 98 26 55 37 89 48 18 29 0
-200 -43 0
-200 78 0
-200 76 0
-200 71 0
-200 -14 0
-200 -67 0
-200 -63 0
-200 -66 0
-200 70 0
-200 96 0
200 43 -78 -76 -71 14 67 63 66 -70 -96 0
191 192 193 194 195 196 197 198 199 200 0
